JOBS = 1..6;
MACHINES = 1..5;
SPEED = 1;
time = array3d(JOBS,MACHINES,1..SPEED,[90,59,11,30,79,74,33,70,92,30,84,14,59,84,42,64,63,79,71,78,75,13,43,71,90,78,95,79,66,59]);
energy = array3d(JOBS,MACHINES,1..SPEED,[40,55,89,74,45,47,71,49,39,74,43,86,55,43,65,52,53,45,49,45,47,87,65,49,40,45,38,45,51,55]);
precedence = array2d(JOBS,MACHINES,[4,1,3,2,0,3,2,0,1,4,0,2,1,3,4,3,0,4,1,2,3,4,0,1,2,2,0,4,3,1]);
ME = 1;
TE = 151;
st_old = array2d(JOBS,MACHINES,[452,239,373,343,0,239,206,44,114,355,0,192,133,373,457,388,95,463,206,277,313,529,0,43,187,154,0,384,277,95]);
SpeedScaling = array2d(JOBS,MACHINES,[1,1,1,1,1,1,1,1,1,1,1,1,1,1,1,1,1,1,1,1,1,1,1,1,1,1,1,1,1,1]);
